20
587 233 220
95 76 44
81 47 34
71 52 30
96 52 28
104 80 50
77 64 57
75 45 36
65 49 39
70 49 41
111 44 42
108 94 51
43 40 26
70 47 39
84 36 26
103 97 27
54 54 24
63 46 38
80 52 37
67 59 20
102 89 23
thpack7_32